src/main/resources/GLKH-1.0/TMP/senseval3_subTrees1.gtsp.pid5972.atsp
NAME : senseval3_subTrees1.gtsp.pid5972.gtsp
TYPE : ATSP
DIMENSION : 37
EDGE_WEIGHT_TYPE : EXPLICIT
EDGE_WEIGHT_FORMAT : FULL_MATRIX
EDGE_WEIGHT_SECTION
999999 0 10737418 10737418 10737418 10737418 10737418 5368710 5368710 5368710 5368710 5368710 5368710 5368710 5368710 5368710 5368710 5368710 5368710 5368710 5368710 5368710 5368710 5368710 5368710 5368710 5368710 5368710 5368710 5368710 5368710 5368710 5368710 5368710 5368710 5368710 5368710 
10737418 999999 0 10737418 10737418 10737418 10737418 5368710 5368710 5368710 5368710 5368710 5368710 5368710 5368710 5368710 5368710 5368710 5368710 5368710 5368710 5368710 5368710 5368710 5368710 5368710 5368710 5368710 5368710 5368710 5368710 5368710 5368710 5368710 5368710 5368710 5368710 
10737418 10737418 999999 0 10737418 10737418 10737418 5368710 5368710 5368710 5368710 5368710 5368710 5368710 5368710 5368710 5368710 5368710 5368710 5368710 5368710 5368710 5368710 5368710 5368710 5368710 5368710 5368710 5368710 5368710 5368710 5368710 5368710 5368710 5368710 5368710 5368710 
10737418 10737418 10737418 999999 0 10737418 10737418 5368710 5368710 5368710 5368710 5368710 5368710 5368710 5368710 5368710 5368710 5368710 5368710 5368710 5368710 5368710 5368710 5368710 5368710 5368710 5368710 5368710 5368710 5368710 5368710 5368710 5368710 5368710 5368710 5368710 5368710 
10737418 10737418 10737418 10737418 999999 0 10737418 5368710 5368710 5368710 5368710 5368710 5368710 5368710 5368710 5368710 5368710 5368710 5368710 5368710 5368710 5368710 5368710 5368710 5368710 5368710 5368710 5368710 5368710 5368710 5368710 5368710 5368710 5368710 5368710 5368710 5368710 
10737418 10737418 10737418 10737418 10737418 999999 0 5368710 5368710 5368710 5368710 5368710 5368710 5368710 5368710 5368710 5368710 5368710 5368710 5368710 5368710 5368710 5368710 5368710 5368710 5368710 5368710 5368710 5368710 5368710 5368710 5368710 5368710 5368710 5368710 5368710 5368710 
0 10737418 10737418 10737418 10737418 10737418 999999 5368710 5368710 5368710 5368710 5368710 5368710 5368710 5368710 5368710 5368710 5368710 5368710 5368710 5368710 5368710 5368710 5368710 5368710 5368710 5368710 5368710 5368710 5368710 5368710 5368710 5368710 5368710 5368710 5368710 5368710 
5368710 5368710 5368710 5368710 5368710 5368710 5368710 999999 0 5368710 5368710 5368710 5368710 5368710 5368710 5368710 5368710 5368710 5368710 5368710 5368710 5368710 5368710 5368710 5368710 5368710 5368710 5368710 5368710 5368710 5368710 5368710 5368710 5368710 5368710 5368710 5368710 
5368710 5368710 5368710 5368710 5368710 5368710 5368710 0 999999 5368710 5368710 5368710 5368710 5368710 5368710 5368710 5368710 5368710 5368710 5368710 5368710 5368710 5368710 5368710 5368710 5368710 5368710 5368710 5368710 5368710 5368710 5368710 5368710 5368710 5368710 5368710 5368710 
5368710 5368710 5368710 5368710 5368710 5368710 5368710 5368710 5368710 999999 0 10737418 5368710 5368710 5368710 5368710 5368710 5368710 5368710 5368710 5368710 5368710 5368710 5368710 5368710 5368710 5368710 5368710 5368710 5368710 5368710 5368710 5368710 5368710 5368710 5368710 5368710 
5368710 5368710 5368710 5368710 5368710 5368710 5368710 5368710 5368710 10737418 999999 0 5368710 5368710 5368710 5368710 5368710 5368710 5368710 5368710 5368710 5368710 5368710 5368710 5368710 5368710 5368710 5368710 5368710 5368710 5368710 5368710 5368710 5368710 5368710 5368710 5368710 
5368710 5368710 5368710 5368710 5368710 5368710 5368710 5368710 5368710 0 10737418 999999 5368710 5368710 5368710 5368710 5368710 5368710 5368710 5368710 5368710 5368710 5368710 5368710 5368710 5368710 5368710 5368710 5368710 5368710 5368710 5368710 5368710 5368710 5368710 5368710 5368710 
5368710 5368710 5368710 5368710 5368710 5368710 5368710 5368710 5368710 5368710 5368710 5368710 999999 0 10737418 10737418 10737418 10737418 5368710 5368710 5368710 5368710 5368710 5368710 5368710 5368710 5368710 5368710 5368710 5368710 5368710 5368710 5368710 5368710 5368710 5368710 5368710 
5368710 5368710 5368710 5368710 5368710 5368710 5368710 5368710 5368710 5368710 5368710 5368710 10737418 999999 0 10737418 10737418 10737418 5368710 5368710 5368710 5368710 5368710 5368710 5368710 5368710 5368710 5368710 5368710 5368710 5368710 5368710 5368710 5368710 5368710 5368710 5368710 
5368710 5368710 5368710 5368710 5368710 5368710 5368710 5368710 5368710 5368710 5368710 5368710 10737418 10737418 999999 0 10737418 10737418 5368710 5368710 5368710 5368710 5368710 5368710 5368710 5368710 5368710 5368710 5368710 5368710 5368710 5368710 5368710 5368710 5368710 5368710 5368710 
5368710 5368710 5368710 5368710 5368710 5368710 5368710 5368710 5368710 5368710 5368710 5368710 10737418 10737418 10737418 999999 0 10737418 5368710 5368710 5368710 5368710 5368710 5368710 5368710 5368710 5368710 5368710 5368710 5368710 5368710 5368710 5368710 5368710 5368710 5368710 5368710 
5368710 5368710 5368710 5368710 5368710 5368710 5368710 5368710 5368710 5368710 5368710 5368710 10737418 10737418 10737418 10737418 999999 0 5368710 5368710 5368710 5368710 5368710 5368710 5368710 5368710 5368710 5368710 5368710 5368710 5368710 5368710 5368710 5368710 5368710 5368710 5368710 
5368710 5368710 5368710 5368710 5368710 5368710 5368710 5368710 5368710 5368710 5368710 5368710 0 10737418 10737418 10737418 10737418 999999 5368710 5368710 5368710 5368710 5368710 5368710 5368710 5368710 5368710 5368710 5368710 5368710 5368710 5368710 5368710 5368710 5368710 5368710 5368710 
5368710 5368710 5368710 5368710 5368710 5368710 5368710 5368710 5368710 5368710 5368710 5368710 5368710 5368710 5368710 5368710 5368710 5368710 999999 0 10737418 10737418 10737418 10737418 10737418 10737418 10737418 10737418 10737418 10737418 10737418 10737418 10737418 10737418 10737418 10737418 10737418 
5368710 5368710 5368710 5368710 5368710 5368710 5368710 5368710 5368710 5368710 5368710 5368710 5368710 5368710 5368710 5368710 5368710 5368710 10737418 999999 0 10737418 10737418 10737418 10737418 10737418 10737418 10737418 10737418 10737418 10737418 10737418 10737418 10737418 10737418 10737418 10737418 
5368710 5368710 5368710 5368710 5368710 5368710 5368710 5368710 5368710 5368710 5368710 5368710 5368710 5368710 5368710 5368710 5368710 5368710 10737418 10737418 999999 0 10737418 10737418 10737418 10737418 10737418 10737418 10737418 10737418 10737418 10737418 10737418 10737418 10737418 10737418 10737418 
5368710 5368710 5368710 5368710 5368710 5368710 5368710 5368710 5368710 5368710 5368710 5368710 5368710 5368710 5368710 5368710 5368710 5368710 10737418 10737418 10737418 999999 0 10737418 10737418 10737418 10737418 10737418 10737418 10737418 10737418 10737418 10737418 10737418 10737418 10737418 10737418 
5368710 5368710 5368710 5368710 5368710 5368710 5368710 5368710 5368710 5368710 5368710 5368710 5368710 5368710 5368710 5368710 5368710 5368710 10737418 10737418 10737418 10737418 999999 0 10737418 10737418 10737418 10737418 10737418 10737418 10737418 10737418 10737418 10737418 10737418 10737418 10737418 
5368710 5368710 5368710 5368710 5368710 5368710 5368710 5368710 5368710 5368710 5368710 5368710 5368710 5368710 5368710 5368710 5368710 5368710 10737418 10737418 10737418 10737418 10737418 999999 0 10737418 10737418 10737418 10737418 10737418 10737418 10737418 10737418 10737418 10737418 10737418 10737418 
5368710 5368710 5368710 5368710 5368710 5368710 5368710 5368710 5368710 5368710 5368710 5368710 5368710 5368710 5368710 5368710 5368710 5368710 10737418 10737418 10737418 10737418 10737418 10737418 999999 0 10737418 10737418 10737418 10737418 10737418 10737418 10737418 10737418 10737418 10737418 10737418 
5368710 5368710 5368710 5368710 5368710 5368710 5368710 5368710 5368710 5368710 5368710 5368710 5368710 5368710 5368710 5368710 5368710 5368710 10737418 10737418 10737418 10737418 10737418 10737418 10737418 999999 0 10737418 10737418 10737418 10737418 10737418 10737418 10737418 10737418 10737418 10737418 
5368710 5368710 5368710 5368710 5368710 5368710 5368710 5368710 5368710 5368710 5368710 5368710 5368710 5368710 5368710 5368710 5368710 5368710 10737418 10737418 10737418 10737418 10737418 10737418 10737418 10737418 999999 0 10737418 10737418 10737418 10737418 10737418 10737418 10737418 10737418 10737418 
5368710 5368710 5368710 5368710 5368710 5368710 5368710 5368710 5368710 5368710 5368710 5368710 5368710 5368710 5368710 5368710 5368710 5368710 10737418 10737418 10737418 10737418 10737418 10737418 10737418 10737418 10737418 999999 0 10737418 10737418 10737418 10737418 10737418 10737418 10737418 10737418 
5368710 5368710 5368710 5368710 5368710 5368710 5368710 5368710 5368710 5368710 5368710 5368710 5368710 5368710 5368710 5368710 5368710 5368710 10737418 10737418 10737418 10737418 10737418 10737418 10737418 10737418 10737418 10737418 999999 0 10737418 10737418 10737418 10737418 10737418 10737418 10737418 
5368710 5368710 5368710 5368710 5368710 5368710 5368710 5368710 5368710 5368710 5368710 5368710 5368710 5368710 5368710 5368710 5368710 5368710 10737418 10737418 10737418 10737418 10737418 10737418 10737418 10737418 10737418 10737418 10737418 999999 0 10737418 10737418 10737418 10737418 10737418 10737418 
5368710 5368710 5368710 5368710 5368710 5368710 5368710 5368710 5368710 5368710 5368710 5368710 5368710 5368710 5368710 5368710 5368710 5368710 10737418 10737418 10737418 10737418 10737418 10737418 10737418 10737418 10737418 10737418 10737418 10737418 999999 0 10737418 10737418 10737418 10737418 10737418 
5368710 5368710 5368710 5368710 5368710 5368710 5368710 5368710 5368710 5368710 5368710 5368710 5368710 5368710 5368710 5368710 5368710 5368710 10737418 10737418 10737418 10737418 10737418 10737418 10737418 10737418 10737418 10737418 10737418 10737418 10737418 999999 0 10737418 10737418 10737418 10737418 
5368710 5368710 5368710 5368710 5368710 5368710 5368710 5368710 5368710 5368710 5368710 5368710 5368710 5368710 5368710 5368710 5368710 5368710 10737418 10737418 10737418 10737418 10737418 10737418 10737418 10737418 10737418 10737418 10737418 10737418 10737418 10737418 999999 0 10737418 10737418 10737418 
5368710 5368710 5368710 5368710 5368710 5368710 5368710 5368710 5368710 5368710 5368710 5368710 5368710 5368710 5368710 5368710 5368710 5368710 10737418 10737418 10737418 10737418 10737418 10737418 10737418 10737418 10737418 10737418 10737418 10737418 10737418 10737418 10737418 999999 0 10737418 10737418 
5368710 5368710 5368710 5368710 5368710 5368710 5368710 5368710 5368710 5368710 5368710 5368710 5368710 5368710 5368710 5368710 5368710 5368710 10737418 10737418 10737418 10737418 10737418 10737418 10737418 10737418 10737418 10737418 10737418 10737418 10737418 10737418 10737418 10737418 999999 0 10737418 
5368710 5368710 5368710 5368710 5368710 5368710 5368710 5368710 5368710 5368710 5368710 5368710 5368710 5368710 5368710 5368710 5368710 5368710 10737418 10737418 10737418 10737418 10737418 10737418 10737418 10737418 10737418 10737418 10737418 10737418 10737418 10737418 10737418 10737418 10737418 999999 0 
5368710 5368710 5368710 5368710 5368710 5368710 5368710 5368710 5368710 5368710 5368710 5368710 5368710 5368710 5368710 5368710 5368710 5368710 0 10737418 10737418 10737418 10737418 10737418 10737418 10737418 10737418 10737418 10737418 10737418 10737418 10737418 10737418 10737418 10737418 10737418 999999 
EOF
