src/main/resources/GLKH-1.0/TMP/senseval3_subTrees1.gtsp.pid5972.tour
NAME : senseval3_subTrees1.gtsp.pid5972.gtsp.26843550.tour
COMMENT : Length = 26843550
COMMENT : Found by LKH [Keld Helsgaun] Thu Mar  1 12:06:15 2018
TYPE : TOUR
DIMENSION : 37
TOUR_SECTION
1
2
3
4
5
6
7
26
27
28
29
30
31
32
33
34
35
36
37
19
20
21
22
23
24
25
10
11
12
13
14
15
16
17
18
9
8
-1
EOF
